c "random instance"
p edges 150 3440
e 1 7
e 1 8
e 1 9
e 1 12
e 1 16
e 1 20
e 1 21
e 1 23
e 1 24
e 1 31
e 1 33
e 1 36
e 1 37
e 1 39
e 1 40
e 1 41
e 1 48
e 1 50
e 1 52
e 1 53
e 1 59
e 1 61
e 1 64
e 1 67
e 1 71
e 1 79
e 1 80
e 1 85
e 1 89
e 1 107
e 1 108
e 1 113
e 1 128
e 1 131
e 1 132
e 1 136
e 1 141
e 1 142
e 1 145
e 1 146
e 1 148
e 1 150
e 2 7
e 2 8
e 2 9
e 2 10
e 2 13
e 2 15
e 2 16
e 2 18
e 2 23
e 2 24
e 2 25
e 2 26
e 2 31
e 2 34
e 2 37
e 2 38
e 2 40
e 2 45
e 2 46
e 2 50
e 2 56
e 2 58
e 2 60
e 2 61
e 2 68
e 2 69
e 2 72
e 2 77
e 2 80
e 2 82
e 2 84
e 2 86
e 2 88
e 2 90
e 2 95
e 2 102
e 2 105
e 2 109
e 2 110
e 2 113
e 2 115
e 2 116
e 2 118
e 2 120
e 2 124
e 2 126
e 2 129
e 2 137
e 2 141
e 2 143
e 2 144
e 2 149
e 3 4
e 3 10
e 3 11
e 3 16
e 3 18
e 3 24
e 3 26
e 3 27
e 3 28
e 3 31
e 3 32
e 3 35
e 3 36
e 3 37
e 3 38
e 3 40
e 3 41
e 3 43
e 3 44
e 3 46
e 3 49
e 3 52
e 3 53
e 3 57
e 3 60
e 3 62
e 3 63
e 3 64
e 3 65
e 3 66
e 3 69
e 3 78
e 3 84
e 3 87
e 3 88
e 3 89
e 3 95
e 3 101
e 3 105
e 3 109
e 3 112
e 3 114
e 3 115
e 3 116
e 3 117
e 3 120
e 3 122
e 3 124
e 3 126
e 3 128
e 3 129
e 3 131
e 3 132
e 3 144
e 3 146
e 3 149
e 3 150
e 4 6
e 4 7
e 4 11
e 4 12
e 4 13
e 4 15
e 4 18
e 4 19
e 4 20
e 4 27
e 4 28
e 4 35
e 4 41
e 4 43
e 4 44
e 4 45
e 4 46
e 4 49
e 4 51
e 4 53
e 4 55
e 4 58
e 4 60
e 4 64
e 4 73
e 4 75
e 4 79
e 4 82
e 4 86
e 4 88
e 4 90
e 4 96
e 4 97
e 4 101
e 4 105
e 4 114
e 4 116
e 4 125
e 4 128
e 4 133
e 4 135
e 4 138
e 4 139
e 4 142
e 4 144
e 5 14
e 5 15
e 5 17
e 5 21
e 5 26
e 5 32
e 5 38
e 5 39
e 5 40
e 5 48
e 5 51
e 5 52
e 5 53
e 5 55
e 5 56
e 5 57
e 5 59
e 5 62
e 5 63
e 5 64
e 5 66
e 5 67
e 5 72
e 5 74
e 5 78
e 5 80
e 5 88
e 5 89
e 5 90
e 5 92
e 5 93
e 5 97
e 5 98
e 5 102
e 5 108
e 5 110
e 5 112
e 5 114
e 5 122
e 5 133
e 5 135
e 5 138
e 5 143
e 5 145
e 5 150
e 6 17
e 6 20
e 6 21
e 6 30
e 6 35
e 6 43
e 6 45
e 6 62
e 6 65
e 6 66
e 6 67
e 6 71
e 6 74
e 6 75
e 6 77
e 6 78
e 6 83
e 6 85
e 6 87
e 6 91
e 6 92
e 6 100
e 6 105
e 6 109
e 6 112
e 6 113
e 6 114
e 6 118
e 6 120
e 6 122
e 6 123
e 6 126
e 6 128
e 6 131
e 6 134
e 6 140
e 6 146
e 6 149
e 7 11
e 7 13
e 7 15
e 7 26
e 7 27
e 7 28
e 7 35
e 7 42
e 7 49
e 7 50
e 7 52
e 7 58
e 7 61
e 7 66
e 7 67
e 7 68
e 7 70
e 7 77
e 7 79
e 7 83
e 7 87
e 7 90
e 7 93
e 7 106
e 7 110
e 7 115
e 7 116
e 7 121
e 7 125
e 7 132
e 7 137
e 7 140
e 7 143
e 7 148
e 7 149
e 8 11
e 8 14
e 8 15
e 8 25
e 8 28
e 8 32
e 8 34
e 8 35
e 8 36
e 8 37
e 8 39
e 8 41
e 8 57
e 8 60
e 8 62
e 8 63
e 8 66
e 8 67
e 8 76
e 8 82
e 8 84
e 8 92
e 8 95
e 8 96
e 8 99
e 8 101
e 8 104
e 8 111
e 8 114
e 8 116
e 8 117
e 8 126
e 8 129
e 8 132
e 8 134
e 8 136
e 8 137
e 8 139
e 8 142
e 8 143
e 8 146
e 8 147
e 8 149
e 9 12
e 9 19
e 9 26
e 9 27
e 9 30
e 9 36
e 9 41
e 9 42
e 9 45
e 9 47
e 9 49
e 9 56
e 9 59
e 9 61
e 9 67
e 9 73
e 9 74
e 9 77
e 9 82
e 9 85
e 9 91
e 9 92
e 9 93
e 9 95
e 9 97
e 9 101
e 9 103
e 9 104
e 9 106
e 9 113
e 9 118
e 9 121
e 9 123
e 9 127
e 9 130
e 9 131
e 9 138
e 9 141
e 9 144
e 9 146
e 9 149
e 9 150
e 10 13
e 10 16
e 10 21
e 10 26
e 10 38
e 10 39
e 10 41
e 10 51
e 10 53
e 10 58
e 10 59
e 10 62
e 10 64
e 10 66
e 10 67
e 10 68
e 10 72
e 10 73
e 10 75
e 10 77
e 10 78
e 10 80
e 10 81
e 10 82
e 10 89
e 10 91
e 10 93
e 10 95
e 10 98
e 10 100
e 10 113
e 10 115
e 10 116
e 10 123
e 10 125
e 10 129
e 10 131
e 10 132
e 10 134
e 10 141
e 10 148
e 10 149
e 11 13
e 11 14
e 11 15
e 11 18
e 11 19
e 11 20
e 11 21
e 11 23
e 11 25
e 11 29
e 11 33
e 11 39
e 11 40
e 11 42
e 11 43
e 11 46
e 11 47
e 11 49
e 11 50
e 11 57
e 11 62
e 11 73
e 11 77
e 11 78
e 11 79
e 11 81
e 11 83
e 11 91
e 11 93
e 11 95
e 11 97
e 11 98
e 11 99
e 11 102
e 11 105
e 11 106
e 11 111
e 11 119
e 11 124
e 11 126
e 11 128
e 11 135
e 11 136
e 11 141
e 12 19
e 12 25
e 12 26
e 12 27
e 12 34
e 12 40
e 12 41
e 12 48
e 12 51
e 12 52
e 12 53
e 12 60
e 12 62
e 12 66
e 12 67
e 12 83
e 12 84
e 12 85
e 12 92
e 12 94
e 12 95
e 12 96
e 12 97
e 12 104
e 12 106
e 12 107
e 12 108
e 12 109
e 12 112
e 12 113
e 12 116
e 12 117
e 12 118
e 12 120
e 12 125
e 12 129
e 12 130
e 12 137
e 12 142
e 12 149
e 12 150
e 13 24
e 13 27
e 13 28
e 13 29
e 13 38
e 13 40
e 13 42
e 13 45
e 13 48
e 13 49
e 13 52
e 13 54
e 13 61
e 13 63
e 13 67
e 13 68
e 13 75
e 13 76
e 13 80
e 13 88
e 13 89
e 13 94
e 13 98
e 13 100
e 13 106
e 13 109
e 13 110
e 13 112
e 13 116
e 13 122
e 13 126
e 13 128
e 13 129
e 13 130
e 13 133
e 13 137
e 13 138
e 13 140
e 13 141
e 13 144
e 13 148
e 14 19
e 14 20
e 14 26
e 14 28
e 14 29
e 14 30
e 14 37
e 14 40
e 14 41
e 14 42
e 14 56
e 14 57
e 14 58
e 14 61
e 14 63
e 14 64
e 14 66
e 14 67
e 14 70
e 14 71
e 14 73
e 14 75
e 14 78
e 14 89
e 14 90
e 14 96
e 14 97
e 14 99
e 14 107
e 14 112
e 14 113
e 14 118
e 14 124
e 14 125
e 14 129
e 14 130
e 14 131
e 14 133
e 14 136
e 14 137
e 14 138
e 14 139
e 14 142
e 14 145
e 14 147
e 14 148
e 15 18
e 15 21
e 15 23
e 15 27
e 15 29
e 15 36
e 15 37
e 15 39
e 15 49
e 15 51
e 15 53
e 15 57
e 15 59
e 15 65
e 15 67
e 15 78
e 15 79
e 15 81
e 15 82
e 15 83
e 15 84
e 15 87
e 15 91
e 15 95
e 15 100
e 15 102
e 15 103
e 15 105
e 15 106
e 15 117
e 15 120
e 15 123
e 15 127
e 15 130
e 15 146
e 15 147
e 16 25
e 16 28
e 16 36
e 16 39
e 16 41
e 16 43
e 16 45
e 16 46
e 16 47
e 16 49
e 16 50
e 16 57
e 16 63
e 16 64
e 16 66
e 16 70
e 16 72
e 16 74
e 16 77
e 16 86
e 16 87
e 16 89
e 16 90
e 16 91
e 16 93
e 16 94
e 16 97
e 16 98
e 16 100
e 16 108
e 16 110
e 16 111
e 16 114
e 16 116
e 16 117
e 16 119
e 16 123
e 16 125
e 16 128
e 16 132
e 16 133
e 16 136
e 16 139
e 16 143
e 16 146
e 16 147
e 16 148
e 16 150
e 17 20
e 17 24
e 17 27
e 17 29
e 17 32
e 17 33
e 17 38
e 17 39
e 17 40
e 17 47
e 17 52
e 17 58
e 17 63
e 17 64
e 17 67
e 17 73
e 17 76
e 17 78
e 17 79
e 17 82
e 17 87
e 17 89
e 17 91
e 17 95
e 17 97
e 17 105
e 17 106
e 17 109
e 17 114
e 17 119
e 17 121
e 17 124
e 17 130
e 17 131
e 17 133
e 17 138
e 17 139
e 17 143
e 17 144
e 17 145
e 17 148
e 17 150
e 18 23
e 18 25
e 18 28
e 18 31
e 18 32
e 18 40
e 18 44
e 18 48
e 18 51
e 18 52
e 18 53
e 18 56
e 18 59
e 18 63
e 18 67
e 18 68
e 18 78
e 18 79
e 18 80
e 18 81
e 18 82
e 18 88
e 18 89
e 18 90
e 18 93
e 18 94
e 18 97
e 18 99
e 18 103
e 18 111
e 18 112
e 18 118
e 18 124
e 18 132
e 18 138
e 18 144
e 19 21
e 19 25
e 19 30
e 19 32
e 19 34
e 19 35
e 19 37
e 19 38
e 19 39
e 19 40
e 19 42
e 19 46
e 19 48
e 19 49
e 19 52
e 19 64
e 19 68
e 19 69
e 19 72
e 19 73
e 19 74
e 19 75
e 19 77
e 19 82
e 19 83
e 19 87
e 19 88
e 19 92
e 19 93
e 19 94
e 19 98
e 19 99
e 19 100
e 19 103
e 19 104
e 19 105
e 19 107
e 19 108
e 19 111
e 19 112
e 19 115
e 19 117
e 19 119
e 19 124
e 19 128
e 19 136
e 19 137
e 19 142
e 19 144
e 19 147
e 19 148
e 19 149
e 20 21
e 20 25
e 20 26
e 20 33
e 20 35
e 20 36
e 20 37
e 20 38
e 20 40
e 20 43
e 20 46
e 20 51
e 20 57
e 20 60
e 20 72
e 20 78
e 20 80
e 20 81
e 20 82
e 20 83
e 20 89
e 20 93
e 20 96
e 20 101
e 20 104
e 20 107
e 20 108
e 20 115
e 20 116
e 20 118
e 20 119
e 20 124
e 20 125
e 20 126
e 20 129
e 20 135
e 20 137
e 20 138
e 20 139
e 20 147
e 21 23
e 21 24
e 21 26
e 21 27
e 21 28
e 21 31
e 21 32
e 21 39
e 21 40
e 21 48
e 21 50
e 21 54
e 21 60
e 21 62
e 21 70
e 21 71
e 21 72
e 21 73
e 21 77
e 21 81
e 21 87
e 21 90
e 21 91
e 21 95
e 21 97
e 21 99
e 21 100
e 21 101
e 21 109
e 21 112
e 21 116
e 21 120
e 21 128
e 21 130
e 21 131
e 21 137
e 21 139
e 21 140
e 21 142
e 21 144
e 21 146
e 21 147
e 22 25
e 22 27
e 22 29
e 22 30
e 22 32
e 22 34
e 22 37
e 22 41
e 22 43
e 22 46
e 22 49
e 22 51
e 22 52
e 22 53
e 22 56
e 22 57
e 22 61
e 22 62
e 22 63
e 22 65
e 22 66
e 22 73
e 22 78
e 22 83
e 22 84
e 22 86
e 22 90
e 22 94
e 22 101
e 22 104
e 22 107
e 22 110
e 22 112
e 22 118
e 22 123
e 22 128
e 22 130
e 22 141
e 23 26
e 23 28
e 23 30
e 23 45
e 23 49
e 23 51
e 23 56
e 23 61
e 23 64
e 23 68
e 23 70
e 23 77
e 23 78
e 23 79
e 23 80
e 23 83
e 23 94
e 23 96
e 23 99
e 23 105
e 23 106
e 23 107
e 23 111
e 23 118
e 23 119
e 23 121
e 23 122
e 23 125
e 23 126
e 23 132
e 23 134
e 23 135
e 23 137
e 23 138
e 23 141
e 23 147
e 24 25
e 24 29
e 24 35
e 24 36
e 24 37
e 24 38
e 24 40
e 24 45
e 24 50
e 24 54
e 24 58
e 24 60
e 24 68
e 24 71
e 24 72
e 24 73
e 24 74
e 24 76
e 24 77
e 24 82
e 24 83
e 24 86
e 24 87
e 24 90
e 24 92
e 24 93
e 24 94
e 24 96
e 24 99
e 24 101
e 24 102
e 24 105
e 24 108
e 24 109
e 24 111
e 24 113
e 24 114
e 24 116
e 24 120
e 24 123
e 24 126
e 24 127
e 24 133
e 24 134
e 24 135
e 24 138
e 24 140
e 24 141
e 24 143
e 24 145
e 24 147
e 24 148
e 24 149
e 25 32
e 25 39
e 25 40
e 25 43
e 25 45
e 25 47
e 25 49
e 25 51
e 25 57
e 25 58
e 25 60
e 25 62
e 25 74
e 25 75
e 25 79
e 25 82
e 25 84
e 25 86
e 25 87
e 25 95
e 25 98
e 25 101
e 25 102
e 25 103
e 25 109
e 25 112
e 25 118
e 25 119
e 25 120
e 25 125
e 25 128
e 25 135
e 25 136
e 25 140
e 25 141
e 25 143
e 25 147
e 25 148
e 26 28
e 26 29
e 26 37
e 26 42
e 26 48
e 26 49
e 26 50
e 26 52
e 26 57
e 26 59
e 26 61
e 26 73
e 26 77
e 26 83
e 26 84
e 26 85
e 26 88
e 26 90
e 26 91
e 26 102
e 26 103
e 26 104
e 26 107
e 26 109
e 26 115
e 26 118
e 26 124
e 26 126
e 26 135
e 26 138
e 27 28
e 27 37
e 27 39
e 27 40
e 27 51
e 27 59
e 27 61
e 27 63
e 27 66
e 27 77
e 27 82
e 27 86
e 27 90
e 27 91
e 27 93
e 27 97
e 27 98
e 27 105
e 27 108
e 27 110
e 27 112
e 27 115
e 27 116
e 27 117
e 27 119
e 27 120
e 27 122
e 27 126
e 27 131
e 27 132
e 27 134
e 27 138
e 27 144
e 27 145
e 27 149
e 28 40
e 28 42
e 28 43
e 28 50
e 28 51
e 28 53
e 28 56
e 28 58
e 28 63
e 28 65
e 28 68
e 28 69
e 28 70
e 28 76
e 28 80
e 28 88
e 28 89
e 28 92
e 28 94
e 28 96
e 28 98
e 28 102
e 28 103
e 28 108
e 28 112
e 28 118
e 28 119
e 28 123
e 28 125
e 28 126
e 28 135
e 28 138
e 28 145
e 29 36
e 29 38
e 29 40
e 29 43
e 29 47
e 29 48
e 29 49
e 29 55
e 29 59
e 29 60
e 29 66
e 29 75
e 29 79
e 29 82
e 29 85
e 29 90
e 29 92
e 29 96
e 29 101
e 29 104
e 29 108
e 29 110
e 29 113
e 29 116
e 29 118
e 29 123
e 29 124
e 29 126
e 29 130
e 29 131
e 29 132
e 29 134
e 29 141
e 29 144
e 29 146
e 29 148
e 30 33
e 30 34
e 30 38
e 30 41
e 30 43
e 30 45
e 30 46
e 30 52
e 30 56
e 30 57
e 30 58
e 30 61
e 30 65
e 30 67
e 30 72
e 30 76
e 30 80
e 30 83
e 30 94
e 30 96
e 30 99
e 30 101
e 30 104
e 30 106
e 30 107
e 30 108
e 30 109
e 30 117
e 30 119
e 30 121
e 30 126
e 30 127
e 30 128
e 30 131
e 30 133
e 30 134
e 30 136
e 30 138
e 30 140
e 30 144
e 30 149
e 31 33
e 31 37
e 31 43
e 31 46
e 31 56
e 31 61
e 31 62
e 31 63
e 31 69
e 31 73
e 31 76
e 31 77
e 31 96
e 31 103
e 31 104
e 31 114
e 31 117
e 31 121
e 31 125
e 31 128
e 31 133
e 31 134
e 31 139
e 31 145
e 31 146
e 32 33
e 32 40
e 32 45
e 32 47
e 32 48
e 32 49
e 32 51
e 32 52
e 32 64
e 32 67
e 32 69
e 32 71
e 32 72
e 32 75
e 32 76
e 32 77
e 32 78
e 32 87
e 32 90
e 32 94
e 32 102
e 32 103
e 32 104
e 32 110
e 32 112
e 32 114
e 32 115
e 32 118
e 32 123
e 32 127
e 32 130
e 32 135
e 32 143
e 32 146
e 32 149
e 33 41
e 33 43
e 33 45
e 33 46
e 33 47
e 33 60
e 33 62
e 33 63
e 33 64
e 33 66
e 33 70
e 33 71
e 33 76
e 33 77
e 33 79
e 33 82
e 33 84
e 33 89
e 33 91
e 33 92
e 33 94
e 33 95
e 33 96
e 33 99
e 33 103
e 33 105
e 33 111
e 33 112
e 33 123
e 33 130
e 33 132
e 33 133
e 33 135
e 33 136
e 33 138
e 33 140
e 33 141
e 33 142
e 33 146
e 33 149
e 33 150
e 34 35
e 34 42
e 34 49
e 34 58
e 34 64
e 34 67
e 34 70
e 34 76
e 34 77
e 34 78
e 34 80
e 34 81
e 34 84
e 34 85
e 34 89
e 34 102
e 34 104
e 34 105
e 34 111
e 34 113
e 34 120
e 34 121
e 34 127
e 34 128
e 34 131
e 34 133
e 34 136
e 34 141
e 34 142
e 34 144
e 34 145
e 34 150
e 35 36
e 35 37
e 35 43
e 35 44
e 35 45
e 35 51
e 35 54
e 35 60
e 35 61
e 35 62
e 35 63
e 35 66
e 35 71
e 35 72
e 35 73
e 35 82
e 35 84
e 35 85
e 35 86
e 35 91
e 35 93
e 35 95
e 35 98
e 35 100
e 35 106
e 35 109
e 35 113
e 35 116
e 35 122
e 35 127
e 35 129
e 35 134
e 35 137
e 35 141
e 35 145
e 35 147
e 35 149
e 36 37
e 36 39
e 36 42
e 36 50
e 36 51
e 36 55
e 36 57
e 36 60
e 36 62
e 36 63
e 36 66
e 36 73
e 36 75
e 36 79
e 36 88
e 36 91
e 36 92
e 36 98
e 36 101
e 36 103
e 36 104
e 36 105
e 36 107
e 36 108
e 36 121
e 36 128
e 36 131
e 36 132
e 36 137
e 36 140
e 37 41
e 37 43
e 37 46
e 37 47
e 37 48
e 37 49
e 37 52
e 37 53
e 37 56
e 37 60
e 37 61
e 37 71
e 37 73
e 37 84
e 37 86
e 37 87
e 37 88
e 37 90
e 37 92
e 37 93
e 37 99
e 37 100
e 37 107
e 37 108
e 37 111
e 37 113
e 37 115
e 37 116
e 37 129
e 37 130
e 37 131
e 37 132
e 37 136
e 37 138
e 37 141
e 37 145
e 37 149
e 38 51
e 38 52
e 38 54
e 38 57
e 38 60
e 38 63
e 38 65
e 38 67
e 38 68
e 38 75
e 38 76
e 38 78
e 38 80
e 38 81
e 38 86
e 38 87
e 38 88
e 38 92
e 38 97
e 38 99
e 38 100
e 38 103
e 38 105
e 38 108
e 38 116
e 38 121
e 38 123
e 38 124
e 38 128
e 38 133
e 38 143
e 38 145
e 38 147
e 38 148
e 38 150
e 39 45
e 39 46
e 39 50
e 39 52
e 39 56
e 39 61
e 39 62
e 39 64
e 39 65
e 39 66
e 39 70
e 39 82
e 39 88
e 39 89
e 39 91
e 39 93
e 39 94
e 39 96
e 39 97
e 39 102
e 39 103
e 39 105
e 39 106
e 39 108
e 39 111
e 39 114
e 39 117
e 39 118
e 39 120
e 39 121
e 39 129
e 39 132
e 39 133
e 39 135
e 39 138
e 39 142
e 39 146
e 39 147
e 39 149
e 40 41
e 40 46
e 40 51
e 40 54
e 40 55
e 40 59
e 40 64
e 40 65
e 40 68
e 40 70
e 40 73
e 40 74
e 40 82
e 40 85
e 40 86
e 40 87
e 40 90
e 40 92
e 40 96
e 40 97
e 40 102
e 40 103
e 40 111
e 40 124
e 40 125
e 40 129
e 40 136
e 40 137
e 40 139
e 40 140
e 40 147
e 40 149
e 40 150
e 41 50
e 41 54
e 41 58
e 41 59
e 41 70
e 41 73
e 41 76
e 41 79
e 41 82
e 41 84
e 41 85
e 41 86
e 41 91
e 41 92
e 41 93
e 41 94
e 41 100
e 41 101
e 41 103
e 41 105
e 41 106
e 41 108
e 41 111
e 41 112
e 41 114
e 41 115
e 41 118
e 41 120
e 41 123
e 41 125
e 41 138
e 41 142
e 41 145
e 41 150
e 42 46
e 42 50
e 42 52
e 42 63
e 42 65
e 42 67
e 42 71
e 42 78
e 42 79
e 42 80
e 42 88
e 42 95
e 42 100
e 42 106
e 42 107
e 42 109
e 42 113
e 42 114
e 42 115
e 42 117
e 42 118
e 42 119
e 42 121
e 42 126
e 42 127
e 42 129
e 42 130
e 42 133
e 42 138
e 42 140
e 42 141
e 42 148
e 42 149
e 42 150
e 43 44
e 43 45
e 43 46
e 43 54
e 43 56
e 43 62
e 43 71
e 43 72
e 43 75
e 43 76
e 43 82
e 43 85
e 43 91
e 43 94
e 43 96
e 43 98
e 43 99
e 43 100
e 43 101
e 43 102
e 43 111
e 43 114
e 43 115
e 43 116
e 43 120
e 43 121
e 43 123
e 43 124
e 43 127
e 43 132
e 43 136
e 43 137
e 43 139
e 43 144
e 43 146
e 44 49
e 44 52
e 44 54
e 44 64
e 44 65
e 44 70
e 44 76
e 44 77
e 44 85
e 44 86
e 44 89
e 44 93
e 44 95
e 44 96
e 44 104
e 44 105
e 44 112
e 44 113
e 44 118
e 44 119
e 44 120
e 44 125
e 44 137
e 44 149
e 44 150
e 45 46
e 45 49
e 45 55
e 45 56
e 45 58
e 45 60
e 45 61
e 45 64
e 45 67
e 45 68
e 45 69
e 45 70
e 45 71
e 45 73
e 45 75
e 45 77
e 45 87
e 45 89
e 45 93
e 45 100
e 45 103
e 45 111
e 45 116
e 45 117
e 45 119
e 45 120
e 45 122
e 45 123
e 45 124
e 45 125
e 45 131
e 45 133
e 45 135
e 45 141
e 45 148
e 45 150
e 46 49
e 46 50
e 46 59
e 46 66
e 46 67
e 46 69
e 46 71
e 46 82
e 46 87
e 46 91
e 46 92
e 46 94
e 46 108
e 46 115
e 46 116
e 46 117
e 46 118
e 46 120
e 46 121
e 46 122
e 46 124
e 46 128
e 46 130
e 46 131
e 46 134
e 46 139
e 46 140
e 46 143
e 46 147
e 47 56
e 47 59
e 47 61
e 47 65
e 47 67
e 47 70
e 47 71
e 47 72
e 47 76
e 47 78
e 47 87
e 47 89
e 47 96
e 47 99
e 47 103
e 47 106
e 47 108
e 47 109
e 47 110
e 47 113
e 47 114
e 47 115
e 47 117
e 47 118
e 47 119
e 47 122
e 47 125
e 47 130
e 47 132
e 47 134
e 47 139
e 48 51
e 48 52
e 48 53
e 48 61
e 48 64
e 48 74
e 48 80
e 48 85
e 48 88
e 48 93
e 48 96
e 48 101
e 48 110
e 48 116
e 48 118
e 48 121
e 48 122
e 48 123
e 48 130
e 48 132
e 48 133
e 48 137
e 48 141
e 48 143
e 48 144
e 48 145
e 49 52
e 49 56
e 49 59
e 49 61
e 49 63
e 49 76
e 49 77
e 49 80
e 49 82
e 49 84
e 49 85
e 49 93
e 49 96
e 49 97
e 49 99
e 49 104
e 49 105
e 49 110
e 49 111
e 49 113
e 49 114
e 49 119
e 49 139
e 49 140
e 49 142
e 50 52
e 50 59
e 50 62
e 50 64
e 50 65
e 50 67
e 50 77
e 50 79
e 50 80
e 50 81
e 50 83
e 50 85
e 50 88
e 50 90
e 50 101
e 50 102
e 50 103
e 50 105
e 50 106
e 50 109
e 50 110
e 50 113
e 50 119
e 50 121
e 50 138
e 50 145
e 50 149
e 50 150
e 51 57
e 51 59
e 51 61
e 51 64
e 51 68
e 51 72
e 51 76
e 51 78
e 51 84
e 51 90
e 51 91
e 51 93
e 51 94
e 51 96
e 51 97
e 51 99
e 51 100
e 51 102
e 51 108
e 51 109
e 51 116
e 51 118
e 51 119
e 51 121
e 51 124
e 51 125
e 51 129
e 51 130
e 51 134
e 51 138
e 51 139
e 51 140
e 51 141
e 51 143
e 51 150
e 52 59
e 52 62
e 52 64
e 52 72
e 52 74
e 52 82
e 52 86
e 52 90
e 52 93
e 52 98
e 52 102
e 52 104
e 52 107
e 52 108
e 52 110
e 52 115
e 52 118
e 52 122
e 52 123
e 52 125
e 52 129
e 52 130
e 52 133
e 52 134
e 52 136
e 52 150
e 53 55
e 53 56
e 53 60
e 53 61
e 53 62
e 53 63
e 53 64
e 53 65
e 53 66
e 53 70
e 53 71
e 53 77
e 53 81
e 53 83
e 53 85
e 53 89
e 53 93
e 53 94
e 53 95
e 53 99
e 53 100
e 53 103
e 53 110
e 53 111
e 53 112
e 53 114
e 53 115
e 53 120
e 53 121
e 53 123
e 53 124
e 53 130
e 53 135
e 53 139
e 53 143
e 53 144
e 53 146
e 54 56
e 54 58
e 54 61
e 54 65
e 54 66
e 54 68
e 54 70
e 54 71
e 54 73
e 54 91
e 54 92
e 54 95
e 54 98
e 54 99
e 54 102
e 54 104
e 54 105
e 54 108
e 54 111
e 54 112
e 54 113
e 54 121
e 54 125
e 54 129
e 54 132
e 54 134
e 54 135
e 54 137
e 54 138
e 54 147
e 54 150
e 55 56
e 55 59
e 55 66
e 55 67
e 55 77
e 55 80
e 55 82
e 55 89
e 55 90
e 55 92
e 55 95
e 55 97
e 55 111
e 55 117
e 55 123
e 55 124
e 55 132
e 55 134
e 55 138
e 55 142
e 55 149
e 56 63
e 56 67
e 56 76
e 56 79
e 56 80
e 56 87
e 56 88
e 56 89
e 56 92
e 56 94
e 56 96
e 56 116
e 56 121
e 56 122
e 56 123
e 56 126
e 56 131
e 56 134
e 56 135
e 56 138
e 56 141
e 56 144
e 56 145
e 56 146
e 56 147
e 56 148
e 56 149
e 57 58
e 57 60
e 57 64
e 57 73
e 57 77
e 57 81
e 57 82
e 57 85
e 57 90
e 57 105
e 57 106
e 57 109
e 57 111
e 57 112
e 57 114
e 57 115
e 57 117
e 57 118
e 57 119
e 57 120
e 57 121
e 57 126
e 57 128
e 57 130
e 57 131
e 57 136
e 57 137
e 57 142
e 57 147
e 57 148
e 58 66
e 58 67
e 58 71
e 58 74
e 58 77
e 58 78
e 58 79
e 58 83
e 58 85
e 58 88
e 58 91
e 58 92
e 58 98
e 58 105
e 58 107
e 58 111
e 58 113
e 58 116
e 58 117
e 58 119
e 58 126
e 58 128
e 58 131
e 58 132
e 58 141
e 58 150
e 59 61
e 59 69
e 59 70
e 59 73
e 59 74
e 59 75
e 59 80
e 59 83
e 59 87
e 59 88
e 59 96
e 59 103
e 59 105
e 59 110
e 59 111
e 59 116
e 59 118
e 59 128
e 59 134
e 59 135
e 59 139
e 59 141
e 59 147
e 59 148
e 60 64
e 60 67
e 60 68
e 60 71
e 60 75
e 60 83
e 60 84
e 60 85
e 60 86
e 60 87
e 60 92
e 60 96
e 60 97
e 60 100
e 60 101
e 60 105
e 60 106
e 60 110
e 60 114
e 60 119
e 60 123
e 60 124
e 60 136
e 60 137
e 60 140
e 60 141
e 60 142
e 60 146
e 60 147
e 60 149
e 61 66
e 61 69
e 61 71
e 61 73
e 61 75
e 61 76
e 61 77
e 61 78
e 61 80
e 61 84
e 61 88
e 61 89
e 61 96
e 61 97
e 61 102
e 61 104
e 61 107
e 61 112
e 61 114
e 61 116
e 61 120
e 61 121
e 61 124
e 61 131
e 61 132
e 61 133
e 61 137
e 61 141
e 61 142
e 61 147
e 62 63
e 62 64
e 62 74
e 62 75
e 62 78
e 62 79
e 62 85
e 62 90
e 62 91
e 62 94
e 62 100
e 62 103
e 62 104
e 62 107
e 62 108
e 62 110
e 62 111
e 62 115
e 62 116
e 62 118
e 62 120
e 62 123
e 62 124
e 62 129
e 62 130
e 62 132
e 62 135
e 62 142
e 62 150
e 63 66
e 63 69
e 63 74
e 63 76
e 63 79
e 63 80
e 63 81
e 63 91
e 63 95
e 63 96
e 63 99
e 63 104
e 63 106
e 63 109
e 63 114
e 63 115
e 63 118
e 63 126
e 63 127
e 63 137
e 63 148
e 64 65
e 64 73
e 64 76
e 64 78
e 64 80
e 64 81
e 64 82
e 64 85
e 64 86
e 64 97
e 64 99
e 64 100
e 64 101
e 64 102
e 64 104
e 64 105
e 64 113
e 64 115
e 64 121
e 64 122
e 64 124
e 64 129
e 64 132
e 64 135
e 64 140
e 64 141
e 64 144
e 65 67
e 65 68
e 65 77
e 65 80
e 65 83
e 65 84
e 65 86
e 65 87
e 65 88
e 65 90
e 65 95
e 65 98
e 65 104
e 65 105
e 65 112
e 65 114
e 65 115
e 65 116
e 65 118
e 65 120
e 65 122
e 65 124
e 65 126
e 65 128
e 65 132
e 65 135
e 65 140
e 65 141
e 65 142
e 65 143
e 65 144
e 65 145
e 65 150
e 66 72
e 66 74
e 66 82
e 66 83
e 66 84
e 66 87
e 66 89
e 66 90
e 66 91
e 66 94
e 66 99
e 66 102
e 66 103
e 66 104
e 66 105
e 66 106
e 66 110
e 66 112
e 66 115
e 66 116
e 66 123
e 66 124
e 66 127
e 66 128
e 66 130
e 66 133
e 66 136
e 66 137
e 66 138
e 66 140
e 66 141
e 66 142
e 66 145
e 66 148
e 66 149
e 67 68
e 67 70
e 67 72
e 67 75
e 67 77
e 67 81
e 67 83
e 67 84
e 67 87
e 67 89
e 67 93
e 67 95
e 67 96
e 67 98
e 67 99
e 67 107
e 67 109
e 67 112
e 67 120
e 67 121
e 67 122
e 67 136
e 67 138
e 67 139
e 67 145
e 67 148
e 68 76
e 68 79
e 68 80
e 68 84
e 68 85
e 68 86
e 68 89
e 68 95
e 68 102
e 68 106
e 68 107
e 68 108
e 68 109
e 68 115
e 68 118
e 68 119
e 68 123
e 68 126
e 68 131
e 68 136
e 68 142
e 68 144
e 68 147
e 68 150
e 69 72
e 69 74
e 69 76
e 69 77
e 69 79
e 69 80
e 69 83
e 69 84
e 69 85
e 69 92
e 69 96
e 69 101
e 69 104
e 69 105
e 69 110
e 69 111
e 69 113
e 69 129
e 69 131
e 69 141
e 69 143
e 69 149
e 69 150
e 70 74
e 70 75
e 70 78
e 70 80
e 70 84
e 70 87
e 70 91
e 70 93
e 70 94
e 70 95
e 70 96
e 70 97
e 70 98
e 70 104
e 70 105
e 70 106
e 70 107
e 70 109
e 70 111
e 70 113
e 70 115
e 70 116
e 70 117
e 70 121
e 70 122
e 70 125
e 70 130
e 70 131
e 70 138
e 70 142
e 70 144
e 70 145
e 71 73
e 71 75
e 71 79
e 71 80
e 71 81
e 71 85
e 71 86
e 71 88
e 71 89
e 71 91
e 71 95
e 71 97
e 71 99
e 71 100
e 71 104
e 71 107
e 71 109
e 71 114
e 71 117
e 71 118
e 71 121
e 71 127
e 71 132
e 71 135
e 71 144
e 71 148
e 72 81
e 72 82
e 72 85
e 72 86
e 72 93
e 72 95
e 72 96
e 72 107
e 72 113
e 72 114
e 72 115
e 72 116
e 72 124
e 72 126
e 72 128
e 72 134
e 72 135
e 72 136
e 72 142
e 72 144
e 72 145
e 72 149
e 72 150
e 73 78
e 73 85
e 73 87
e 73 88
e 73 89
e 73 91
e 73 92
e 73 94
e 73 102
e 73 109
e 73 113
e 73 116
e 73 129
e 73 137
e 73 138
e 73 142
e 73 143
e 73 146
e 73 147
e 73 150
e 74 78
e 74 84
e 74 91
e 74 92
e 74 107
e 74 108
e 74 111
e 74 112
e 74 113
e 74 114
e 74 116
e 74 120
e 74 123
e 74 126
e 74 128
e 74 131
e 74 139
e 74 140
e 74 144
e 74 145
e 74 148
e 74 149
e 75 77
e 75 83
e 75 88
e 75 90
e 75 92
e 75 95
e 75 99
e 75 106
e 75 108
e 75 109
e 75 114
e 75 121
e 75 124
e 75 129
e 75 133
e 75 139
e 75 146
e 75 147
e 75 148
e 76 82
e 76 83
e 76 87
e 76 89
e 76 101
e 76 106
e 76 113
e 76 116
e 76 133
e 76 140
e 76 144
e 76 146
e 76 148
e 77 78
e 77 82
e 77 83
e 77 84
e 77 86
e 77 87
e 77 88
e 77 95
e 77 96
e 77 101
e 77 107
e 77 108
e 77 110
e 77 114
e 77 116
e 77 118
e 77 123
e 77 128
e 77 133
e 77 134
e 77 138
e 77 140
e 77 141
e 77 142
e 77 149
e 78 81
e 78 82
e 78 84
e 78 86
e 78 87
e 78 92
e 78 103
e 78 115
e 78 121
e 78 122
e 78 124
e 78 125
e 78 127
e 78 129
e 78 131
e 78 132
e 78 136
e 78 144
e 78 147
e 79 84
e 79 86
e 79 87
e 79 88
e 79 89
e 79 90
e 79 92
e 79 94
e 79 95
e 79 98
e 79 103
e 79 112
e 79 113
e 79 115
e 79 116
e 79 118
e 79 128
e 79 131
e 79 139
e 79 140
e 79 141
e 79 143
e 79 144
e 79 150
e 80 82
e 80 83
e 80 85
e 80 86
e 80 89
e 80 90
e 80 101
e 80 106
e 80 111
e 80 113
e 80 115
e 80 117
e 80 125
e 80 128
e 80 130
e 80 134
e 80 137
e 80 139
e 80 149
e 80 150
e 81 82
e 81 83
e 81 89
e 81 90
e 81 93
e 81 94
e 81 99
e 81 101
e 81 110
e 81 115
e 81 126
e 81 132
e 81 137
e 81 141
e 81 143
e 81 146
e 81 148
e 82 83
e 82 89
e 82 95
e 82 97
e 82 98
e 82 99
e 82 101
e 82 102
e 82 103
e 82 104
e 82 108
e 82 112
e 82 113
e 82 116
e 82 120
e 82 121
e 82 134
e 82 138
e 82 140
e 82 150
e 83 88
e 83 91
e 83 92
e 83 95
e 83 101
e 83 107
e 83 109
e 83 111
e 83 112
e 83 114
e 83 115
e 83 125
e 83 133
e 83 134
e 83 137
e 83 139
e 83 142
e 83 144
e 83 146
e 83 149
e 83 150
e 84 87
e 84 88
e 84 89
e 84 91
e 84 92
e 84 93
e 84 99
e 84 100
e 84 102
e 84 103
e 84 105
e 84 109
e 84 110
e 84 111
e 84 123
e 84 124
e 84 125
e 84 127
e 84 134
e 84 135
e 84 137
e 84 140
e 84 141
e 84 145
e 84 150
e 85 87
e 85 88
e 85 98
e 85 101
e 85 106
e 85 109
e 85 110
e 85 113
e 85 116
e 85 118
e 85 119
e 85 120
e 85 124
e 85 135
e 85 138
e 85 142
e 86 92
e 86 94
e 86 96
e 86 103
e 86 106
e 86 110
e 86 112
e 86 115
e 86 116
e 86 118
e 86 122
e 86 125
e 86 134
e 86 139
e 86 140
e 86 141
e 86 144
e 86 146
e 86 147
e 86 148
e 87 90
e 87 92
e 87 93
e 87 95
e 87 96
e 87 98
e 87 99
e 87 102
e 87 104
e 87 107
e 87 118
e 87 119
e 87 128
e 87 138
e 87 145
e 87 147
e 87 149
e 87 150
e 88 90
e 88 91
e 88 92
e 88 97
e 88 103
e 88 104
e 88 107
e 88 108
e 88 109
e 88 116
e 88 119
e 88 127
e 88 133
e 88 137
e 88 141
e 88 142
e 88 143
e 88 144
e 88 147
e 88 150
e 89 93
e 89 96
e 89 99
e 89 100
e 89 101
e 89 111
e 89 112
e 89 118
e 89 120
e 89 122
e 89 129
e 89 140
e 89 141
e 89 142
e 89 144
e 89 149
e 90 91
e 90 92
e 90 95
e 90 97
e 90 101
e 90 103
e 90 107
e 90 112
e 90 113
e 90 116
e 90 118
e 90 119
e 90 120
e 90 122
e 90 123
e 90 124
e 90 125
e 90 126
e 90 127
e 90 132
e 90 135
e 90 137
e 90 138
e 90 140
e 90 141
e 90 142
e 90 146
e 90 148
e 91 92
e 91 94
e 91 95
e 91 98
e 91 100
e 91 105
e 91 106
e 91 110
e 91 116
e 91 117
e 91 123
e 91 126
e 91 128
e 91 129
e 91 131
e 91 132
e 91 133
e 91 144
e 91 145
e 91 148
e 91 149
e 92 94
e 92 95
e 92 96
e 92 97
e 92 100
e 92 102
e 92 105
e 92 111
e 92 112
e 92 113
e 92 114
e 92 118
e 92 120
e 92 122
e 92 124
e 92 127
e 92 128
e 92 136
e 92 140
e 92 141
e 92 142
e 92 144
e 92 146
e 92 149
e 93 94
e 93 95
e 93 99
e 93 110
e 93 112
e 93 114
e 93 116
e 93 117
e 93 122
e 93 124
e 93 129
e 93 132
e 93 139
e 93 140
e 94 98
e 94 104
e 94 113
e 94 118
e 94 120
e 94 121
e 94 122
e 94 125
e 94 126
e 94 134
e 94 135
e 94 136
e 94 138
e 94 139
e 94 140
e 94 146
e 94 147
e 94 148
e 94 149
e 95 97
e 95 101
e 95 106
e 95 110
e 95 111
e 95 113
e 95 114
e 95 115
e 95 126
e 95 129
e 95 131
e 95 133
e 95 135
e 95 136
e 95 138
e 95 141
e 95 143
e 95 149
e 96 99
e 96 101
e 96 104
e 96 106
e 96 111
e 96 118
e 96 120
e 96 121
e 96 124
e 96 125
e 96 128
e 96 129
e 96 130
e 96 131
e 96 135
e 96 140
e 96 146
e 96 147
e 97 99
e 97 104
e 97 114
e 97 116
e 97 118
e 97 119
e 97 120
e 97 122
e 97 123
e 97 124
e 97 127
e 97 130
e 97 131
e 97 132
e 97 133
e 97 134
e 97 135
e 97 137
e 97 141
e 97 142
e 97 143
e 97 146
e 98 100
e 98 104
e 98 107
e 98 109
e 98 116
e 98 119
e 98 125
e 98 127
e 98 139
e 98 143
e 98 146
e 98 148
e 98 150
e 99 101
e 99 102
e 99 110
e 99 112
e 99 114
e 99 116
e 99 117
e 99 120
e 99 122
e 99 126
e 99 129
e 99 134
e 99 139
e 99 141
e 99 147
e 99 148
e 100 101
e 100 102
e 100 106
e 100 111
e 100 113
e 100 120
e 100 122
e 100 123
e 100 124
e 100 144
e 100 145
e 101 103
e 101 105
e 101 110
e 101 114
e 101 115
e 101 125
e 101 130
e 101 132
e 101 134
e 101 144
e 101 149
e 102 103
e 102 109
e 102 112
e 102 115
e 102 126
e 102 131
e 102 133
e 102 140
e 102 141
e 102 144
e 102 145
e 102 147
e 102 150
e 103 108
e 103 110
e 103 111
e 103 113
e 103 117
e 103 118
e 103 127
e 103 128
e 103 129
e 103 131
e 103 132
e 103 134
e 103 135
e 103 138
e 103 140
e 103 141
e 103 145
e 103 148
e 103 150
e 104 105
e 104 106
e 104 110
e 104 113
e 104 116
e 104 117
e 104 119
e 104 124
e 104 133
e 104 135
e 104 137
e 104 141
e 104 143
e 104 144
e 104 145
e 104 146
e 104 148
e 105 106
e 105 107
e 105 109
e 105 114
e 105 116
e 105 117
e 105 119
e 105 120
e 105 122
e 105 126
e 105 129
e 105 130
e 105 133
e 105 134
e 105 136
e 105 138
e 105 147
e 105 148
e 105 149
e 105 150
e 106 107
e 106 110
e 106 111
e 106 114
e 106 115
e 106 116
e 106 117
e 106 119
e 106 121
e 106 127
e 106 130
e 106 139
e 106 144
e 106 146
e 106 148
e 106 149
e 107 111
e 107 112
e 107 122
e 107 125
e 107 126
e 107 131
e 107 133
e 107 139
e 107 140
e 107 142
e 107 146
e 107 150
e 108 109
e 108 112
e 108 115
e 108 118
e 108 119
e 108 123
e 108 128
e 108 131
e 108 134
e 108 135
e 108 140
e 108 141
e 108 143
e 109 110
e 109 113
e 109 114
e 109 117
e 109 120
e 109 122
e 109 123
e 109 124
e 109 131
e 109 137
e 109 139
e 109 141
e 109 144
e 109 147
e 110 117
e 110 119
e 110 126
e 110 127
e 110 129
e 110 133
e 110 134
e 110 135
e 110 140
e 110 141
e 110 142
e 110 146
e 110 147
e 110 150
e 111 115
e 111 116
e 111 128
e 111 132
e 111 133
e 111 134
e 111 136
e 111 141
e 111 144
e 111 147
e 111 149
e 112 113
e 112 120
e 112 124
e 112 133
e 112 138
e 112 140
e 112 142
e 112 143
e 112 145
e 112 148
e 112 149
e 112 150
e 113 114
e 113 118
e 113 122
e 113 123
e 113 127
e 113 131
e 113 134
e 113 139
e 113 144
e 113 145
e 113 147
e 113 148
e 113 149
e 113 150
e 114 116
e 114 117
e 114 118
e 114 122
e 114 123
e 114 125
e 114 129
e 114 131
e 114 136
e 114 138
e 114 140
e 114 143
e 114 145
e 114 149
e 114 150
e 115 118
e 115 120
e 115 122
e 115 123
e 115 124
e 115 126
e 115 127
e 115 135
e 115 138
e 115 141
e 115 143
e 115 144
e 115 148
e 115 149
e 116 120
e 116 122
e 116 123
e 116 124
e 116 125
e 116 126
e 116 127
e 116 128
e 116 129
e 116 132
e 116 133
e 116 137
e 116 144
e 116 145
e 116 150
e 117 119
e 117 123
e 117 128
e 117 130
e 117 134
e 117 147
e 117 150
e 118 121
e 118 127
e 118 132
e 118 138
e 118 142
e 118 145
e 118 150
e 119 129
e 119 136
e 119 141
e 119 143
e 119 150
e 120 121
e 120 122
e 120 123
e 120 126
e 120 127
e 120 129
e 120 134
e 120 141
e 120 145
e 121 128
e 121 134
e 121 136
e 121 137
e 121 140
e 121 142
e 121 143
e 121 145
e 121 148
e 121 149
e 121 150
e 122 124
e 122 127
e 122 128
e 122 130
e 122 133
e 122 135
e 122 137
e 122 139
e 122 141
e 122 142
e 122 145
e 122 148
e 123 127
e 123 131
e 123 134
e 123 137
e 123 145
e 124 126
e 124 130
e 124 133
e 124 134
e 124 145
e 124 147
e 124 148
e 124 150
e 125 126
e 125 129
e 125 137
e 125 139
e 125 140
e 125 141
e 125 146
e 126 128
e 126 133
e 126 138
e 126 139
e 126 147
e 126 148
e 126 149
e 126 150
e 127 129
e 127 134
e 127 135
e 127 139
e 127 148
e 127 150
e 128 132
e 128 138
e 128 139
e 128 140
e 128 142
e 128 144
e 128 149
e 128 150
e 129 130
e 129 147
e 130 134
e 130 135
e 130 138
e 130 142
e 130 143
e 130 144
e 130 148
e 131 135
e 131 136
e 131 140
e 131 144
e 131 146
e 132 133
e 132 135
e 132 138
e 132 140
e 132 142
e 132 147
e 133 135
e 133 141
e 133 142
e 134 138
e 134 145
e 134 146
e 134 147
e 134 149
e 135 137
e 135 138
e 135 140
e 135 141
e 135 144
e 135 145
e 135 146
e 135 150
e 136 138
e 136 139
e 136 144
e 136 147
e 137 145
e 137 146
e 137 147
e 138 140
e 138 150
e 139 140
e 139 141
e 139 143
e 139 145
e 139 146
e 139 150
e 140 143
e 140 145
e 140 149
e 141 145
e 141 149
e 142 145
e 142 146
e 142 150
e 143 145
e 143 148
e 143 149
e 144 146
e 146 147
e 147 148
e 147 149
